25 40
1 2 1
1 6 5
2 3 3
2 7 1
3 4 3
3 8 1
4 5 4
4 9 1
5 10 1
6 7 5
6 11 2
7 8 2
7 12 4
8 9 1
8 13 2
9 10 5
9 14 2
10 15 5
11 12 4
11 16 2
12 13 2
12 17 2
13 14 2
13 18 3
14 15 2
14 19 2
15 20 5
16 17 1
16 21 5
17 18 5
17 22 4
18 19 1
18 23 2
19 20 3
19 24 3
20 25 3
21 22 2
22 23 3
23 24 3
24 25 3
